00000000000000000000000000000000000000000000000000,00000000000000000100100000000000000100000010100000,00000000000000000000000000000000000000000000000000,01001000101100010010000010000100010010000001010001,00000000000000000000000000000000000000000000000000,00000000000000000000000000000000000000000000000000,00110001000011001000000001101010100000101100000110,00000000000000000000000000000000000000000000000000,00000000000000000000000000000000000000000000000000,00000000000000000000000000000000000000000000000000,00000000000000000000000000000000000000000000000000,00000000000000000000000000000000000000000000000000,00000000000000000000000000000000000000000000000000,00000000000000000000000000000000000000000000000000,00000000000000000000000000000000000000000000000000,00000000000000000000000000000000000000000000000000,10000110010000100001011100010001001001010000000000,00000000000000000000000000000000000000000000000000,00000000000000000000000000000000000000000000000000,00000000000000000000000000000000000000000000000000,[],[0, 0, 0, 0, 0, 0, 0, 0, 0, 0, 0, 0, 0, 0, 0, 0, 0, 8, 0, 0, 18, 0, 0, 0, 0, 0, 0, 0, 0, 0, 0, 0, 0, 0, 0, 15, 0, 0, 0, 0, 0, 0, 18, 0, 8, 0, 0, 0, 0, 0],[],[0, 7, 0, 0, 5, 0, 0, 0, 1, 0, 1, 1, 0, 0, 0, 10, 0, 0, 5, 0, 0, 0, 0, 0, 13, 0, 0, 0, 0, 10, 0, 0, 0, 10, 0, 0, 5, 0, 0, 0, 0, 0, 0, 7, 0, 13, 0, 0, 0, 13],[],[],[0, 0, 19, 3, 0, 0, 0, 6, 0, 0, 0, 0, 19, 3, 0, 0, 3, 0, 0, 0, 0, 0, 0, 0, 0, 19, 14, 0, 14, 0, 4, 0, 14, 0, 0, 0, 0, 0, 6, 0, 4, 19, 0, 0, 0, 0, 0, 4, 3, 0],[],[],[],[],[],[],[],[],[],[16, 0, 0, 0, 0, 9, 11, 0, 0, 12, 0, 0, 0, 0, 9, 0, 0, 0, 0, 9, 0, 2, 2, 11, 0, 0, 0, 9, 0, 0, 0, 9, 0, 0, 12, 0, 0, 11, 0, 12, 0, 0, 0, 0, 0, 0, 0, 0, 0, 0],[],[],[][42, 35],[36, 29],[47, 16, 12, 48, 3],[44],[],[11, 49, 10, 45],[30, 2, 26, 32],[40, 28, 38, 25],[33, 4, 24],[22, 21, 0],[41, 7],[39, 5, 6, 19, 23],[43, 1],[14, 27, 9],[18, 8, 15],[],[13],[],[34, 31, 37],[17, 20]
00000000000000000000000000000000000000000000000000,00000000000000000100100000000000000100000010100000,00000000000000000000000000000000000000000000000000,01001000101100010010000010000100010010000001010001,00000000000000000000000000000000000000000000000000,00000000000000000000000000000000000000000000000000,00110001000011001000000001101010100000101100000110,00000000000000000000000000000000000000000000000000,00000000000000000000000000000000000000000000000000,00000000000000000000000000000000000000000000000000,00000000000000000000000000000000000000000000000000,00000000000000000000000000000000000000000000000000,00000000000000000000000000000000000000000000000000,00000000000000000000000000000000000000000000000000,00000000000000000000000000000000000000000000000000,00000000000000000000000000000000000000000000000000,10000110010000100001011100010001001001010000000000,00000000000000000000000000000000000000000000000000,00000000000000000000000000000000000000000000000000,00000000000000000000000000000000000000000000000000,[],[0, 0, 0, 0, 0, 0, 0, 0, 0, 0, 0, 0, 0, 0, 0, 0, 0, 9, 0, 0, 2, 0, 0, 0, 0, 0, 0, 0, 0, 0, 0, 0, 0, 0, 0, 9, 0, 0, 0, 0, 0, 0, 19, 0, 9, 0, 0, 0, 0, 0],[],[0, 5, 0, 0, 3, 0, 0, 0, 12, 0, 18, 12, 0, 0, 0, 3, 0, 0, 3, 0, 0, 0, 0, 0, 3, 0, 0, 0, 0, 15, 0, 0, 0, 15, 0, 0, 3, 0, 0, 0, 0, 0, 0, 5, 0, 12, 0, 0, 0, 3],[],[],[0, 0, 1, 8, 0, 0, 0, 7, 0, 0, 0, 0, 20, 10, 0, 0, 10, 0, 0, 0, 0, 0, 0, 0, 0, 7, 20, 0, 20, 0, 10, 0, 20, 0, 0, 0, 0, 0, 10, 0, 1, 8, 0, 0, 0, 0, 0, 7, 8, 0],[],[],[],[],[],[],[],[],[],[16, 0, 0, 0, 0, 13, 6, 0, 0, 11, 0, 0, 0, 0, 13, 0, 0, 0, 0, 11, 0, 17, 16, 13, 0, 0, 0, 6, 0, 0, 0, 17, 0, 0, 13, 0, 0, 16, 0, 11, 0, 0, 0, 0, 0, 0, 0, 0, 0, 0],[],[],[][19, 9],[17, 35],[37, 34, 6, 22],[42, 20],[44],[36, 11, 43],[10, 8, 33],[31, 14, 23],[13],[16, 48, 25, 30, 2],[32, 38],[3, 40, 12, 28],[7, 26, 47, 41],[21, 27],[],[],[5, 39, 0],[4, 18, 49, 29],[1, 24, 15, 45],[]
00000000000000000000000000000000000000000000000000,00000000000000000100100000000000000100000010100000,00000000000000000000000000000000000000000000000000,01001000101100010010000010000100010010000001010001,00000000000000000000000000000000000000000000000000,00000000000000000000000000000000000000000000000000,00110001000011001000000001101010100000101100000110,00000000000000000000000000000000000000000000000000,00000000000000000000000000000000000000000000000000,00000000000000000000000000000000000000000000000000,00000000000000000000000000000000000000000000000000,00000000000000000000000000000000000000000000000000,00000000000000000000000000000000000000000000000000,00000000000000000000000000000000000000000000000000,00000000000000000000000000000000000000000000000000,00000000000000000000000000000000000000000000000000,10000110010000100001011100010001001001010000000000,00000000000000000000000000000000000000000000000000,00000000000000000000000000000000000000000000000000,00000000000000000000000000000000000000000000000000,[],[0, 0, 0, 0, 0, 0, 0, 0, 0, 0, 0, 0, 0, 0, 0, 0, 0, 4, 0, 0, 4, 0, 0, 0, 0, 0, 0, 0, 0, 0, 0, 0, 0, 0, 0, 9, 0, 0, 0, 0, 0, 0, 1, 0, 9, 0, 0, 0, 0, 0],[],[0, 15, 0, 0, 13, 0, 0, 0, 13, 0, 15, 15, 0, 0, 0, 6, 0, 0, 14, 0, 0, 0, 0, 0, 6, 0, 0, 0, 0, 19, 0, 0, 0, 6, 0, 0, 13, 0, 0, 0, 0, 0, 0, 19, 0, 19, 0, 0, 0, 14],[],[],[0, 0, 10, 16, 0, 0, 0, 11, 0, 0, 0, 0, 3, 10, 0, 0, 3, 0, 0, 0, 0, 0, 0, 0, 0, 7, 7, 0, 7, 0, 10, 0, 3, 0, 0, 0, 0, 0, 7, 0, 7, 11, 0, 0, 0, 0, 0, 3, 3, 0],[],[],[],[],[],[],[],[],[],[20, 0, 0, 0, 0, 17, 12, 0, 0, 12, 0, 0, 0, 0, 17, 0, 0, 0, 0, 5, 0, 17, 12, 18, 0, 0, 0, 12, 0, 0, 0, 20, 0, 0, 12, 0, 0, 12, 0, 20, 0, 0, 0, 0, 0, 0, 0, 0, 0, 0],[],[],[][35, 17],[42, 20],[18],[31, 9],[1, 15, 43],[48, 32, 41],[5, 39, 34],[3, 26, 25, 16],[21, 27, 19],[0, 6],[37, 22, 14, 23],[10, 8, 29, 24, 11],[7, 28, 30],[4, 45, 36],[33, 49],[],[44],[],[12, 2, 38, 40],[13, 47]
00000000000000000000000000000000000000000000000000,00000000000000000100100000000000000100000010100000,00000000000000000000000000000000000000000000000000,01001000101100010010000010000100010010000001010001,00000000000000000000000000000000000000000000000000,00000000000000000000000000000000000000000000000000,00110001000011001000000001101010100000101100000110,00000000000000000000000000000000000000000000000000,00000000000000000000000000000000000000000000000000,00000000000000000000000000000000000000000000000000,00000000000000000000000000000000000000000000000000,00000000000000000000000000000000000000000000000000,00000000000000000000000000000000000000000000000000,00000000000000000000000000000000000000000000000000,00000000000000000000000000000000000000000000000000,00000000000000000000000000000000000000000000000000,10000110010000100001011100010001001001010000000000,00000000000000000000000000000000000000000000000000,00000000000000000000000000000000000000000000000000,00000000000000000000000000000000000000000000000000,[],[0, 0, 0, 0, 0, 0, 0, 0, 0, 0, 0, 0, 0, 0, 0, 0, 0, 1, 0, 0, 11, 0, 0, 0, 0, 0, 0, 0, 0, 0, 0, 0, 0, 0, 0, 1, 0, 0, 0, 0, 0, 0, 11, 0, 1, 0, 0, 0, 0, 0],[],[0, 12, 0, 0, 4, 0, 0, 0, 4, 0, 14, 18, 0, 0, 0, 18, 0, 0, 4, 0, 0, 0, 0, 0, 18, 0, 0, 0, 0, 14, 0, 0, 0, 14, 0, 0, 12, 0, 0, 0, 0, 0, 0, 5, 0, 12, 0, 0, 0, 12],[],[],[0, 0, 20, 6, 0, 0, 0, 20, 0, 0, 0, 0, 10, 2, 0, 0, 13, 0, 0, 0, 0, 0, 0, 0, 0, 10, 13, 0, 13, 0, 13, 0, 13, 0, 0, 0, 0, 0, 6, 0, 6, 10, 0, 0, 0, 0, 0, 13, 10, 0],[],[],[],[],[],[],[],[],[],[9, 0, 0, 0, 0, 19, 8, 0, 0, 19, 0, 0, 0, 0, 8, 0, 0, 0, 0, 8, 0, 19, 16, 16, 0, 0, 0, 7, 0, 0, 0, 19, 0, 0, 8, 0, 0, 9, 0, 19, 0, 0, 0, 0, 0, 0, 0, 0, 0, 0],[],[],[][36, 10, 45, 8],[29],[13, 2, 48, 47],[20],[],[38, 16, 30],[3, 12, 26, 25],[32, 40],[14, 22, 21, 23, 37],[41, 7, 28],[24, 4, 33],[0, 34, 5, 27],[19],[44],[31],[42, 35, 17],[43, 15],[6, 39, 9],[18, 49, 11, 1],[]
00000000000000000000000000000000000000000000000000,00000000000000000100100000000000000100000010100000,00000000000000000000000000000000000000000000000000,01001000101100010010000010000100010010000001010001,00000000000000000000000000000000000000000000000000,00000000000000000000000000000000000000000000000000,00110001000011001000000001101010100000101100000110,00000000000000000000000000000000000000000000000000,00000000000000000000000000000000000000000000000000,00000000000000000000000000000000000000000000000000,00000000000000000000000000000000000000000000000000,00000000000000000000000000000000000000000000000000,00000000000000000000000000000000000000000000000000,00000000000000000000000000000000000000000000000000,00000000000000000000000000000000000000000000000000,00000000000000000000000000000000000000000000000000,10000110010000100001011100010001001001010000000000,00000000000000000000000000000000000000000000000000,00000000000000000000000000000000000000000000000000,00000000000000000000000000000000000000000000000000,[],[0, 0, 0, 0, 0, 0, 0, 0, 0, 0, 0, 0, 0, 0, 0, 0, 0, 18, 0, 0, 15, 0, 0, 0, 0, 0, 0, 0, 0, 0, 0, 0, 0, 0, 0, 20, 0, 0, 0, 0, 0, 0, 20, 0, 20, 0, 0, 0, 0, 0],[],[0, 7, 0, 0, 19, 0, 0, 0, 1, 0, 19, 10, 0, 0, 0, 10, 0, 0, 5, 0, 0, 0, 0, 0, 10, 0, 0, 0, 0, 10, 0, 0, 0, 19, 0, 0, 5, 0, 0, 0, 0, 0, 0, 19, 0, 1, 0, 0, 0, 7],[],[],[0, 0, 13, 6, 0, 0, 0, 13, 0, 0, 0, 0, 6, 3, 0, 0, 8, 0, 0, 0, 0, 0, 0, 0, 0, 8, 13, 0, 13, 0, 8, 0, 3, 0, 0, 0, 0, 0, 11, 0, 6, 11, 0, 0, 0, 0, 0, 8, 8, 0],[],[],[],[],[],[],[],[],[],[17, 0, 0, 0, 0, 12, 16, 0, 0, 9, 0, 0, 0, 0, 17, 0, 0, 0, 0, 14, 0, 16, 16, 12, 0, 0, 0, 12, 0, 0, 0, 9, 0, 0, 12, 0, 0, 16, 0, 9, 0, 0, 0, 0, 0, 0, 0, 0, 0, 0],[],[],[][22, 14, 27],[6, 23],[47, 40, 41],[],[],[7, 25, 3],[33, 10, 49],[48, 2, 28, 32],[15, 29, 43, 4],[9, 39, 34],[21, 31, 5, 37],[16, 12, 30, 26, 38],[19, 0],[13],[35, 20, 17],[],[11],[42, 44],[1, 18, 36],[45, 8, 24]
00000000000000000000000000000000000000000000000000,00000000000000000100100000000000000100000010100000,00000000000000000000000000000000000000000000000000,01001000101100010010000010000100010010000001010001,00000000000000000000000000000000000000000000000000,00000000000000000000000000000000000000000000000000,00110001000011001000000001101010100000101100000110,00000000000000000000000000000000000000000000000000,00000000000000000000000000000000000000000000000000,00000000000000000000000000000000000000000000000000,00000000000000000000000000000000000000000000000000,00000000000000000000000000000000000000000000000000,00000000000000000000000000000000000000000000000000,00000000000000000000000000000000000000000000000000,00000000000000000000000000000000000000000000000000,00000000000000000000000000000000000000000000000000,10000110010000100001011100010001001001010000000000,00000000000000000000000000000000000000000000000000,00000000000000000000000000000000000000000000000000,00000000000000000000000000000000000000000000000000,[],[0, 0, 0, 0, 0, 0, 0, 0, 0, 0, 0, 0, 0, 0, 0, 0, 0, 1, 0, 0, 5, 0, 0, 0, 0, 0, 0, 0, 0, 0, 0, 0, 0, 0, 0, 1, 0, 0, 0, 0, 0, 0, 1, 0, 11, 0, 0, 0, 0, 0],[],[0, 10, 0, 0, 10, 0, 0, 0, 20, 0, 7, 7, 0, 0, 0, 2, 0, 0, 17, 0, 0, 0, 0, 0, 10, 0, 0, 0, 0, 10, 0, 0, 0, 10, 0, 0, 2, 0, 0, 0, 0, 0, 0, 7, 0, 10, 0, 0, 0, 17],[],[],[0, 0, 12, 12, 0, 0, 0, 9, 0, 0, 0, 0, 3, 3, 0, 0, 12, 0, 0, 0, 0, 0, 0, 0, 0, 8, 9, 0, 12, 0, 3, 0, 16, 0, 0, 0, 0, 0, 3, 0, 12, 8, 0, 0, 0, 0, 0, 8, 8, 0],[],[],[],[],[],[],[],[],[],[19, 0, 0, 0, 0, 18, 6, 0, 0, 18, 0, 0, 0, 0, 15, 0, 0, 0, 0, 6, 0, 6, 18, 18, 0, 0, 0, 14, 0, 0, 0, 6, 0, 0, 19, 0, 0, 19, 0, 18, 0, 0, 0, 0, 0, 0, 0, 0, 0, 0],[],[],[][13, 41],[4, 24, 36],[33, 43, 15, 49],[10, 18, 11],[44, 42],[16, 48, 47],[39, 21, 31],[27, 22, 5, 34],[7, 28, 30, 38],[6],[35, 20, 17],[32, 26, 2, 25, 40],[],[12, 3],[23, 0, 14],[],[29, 8],[45, 1],[9, 19, 37],[]
00000000000000000000000000000000000000000000000000,00000000000000000100100000000000000100000010100000,00000000000000000000000000000000000000000000000000,01001000101100010010000010000100010010000001010001,00000000000000000000000000000000000000000000000000,00000000000000000000000000000000000000000000000000,00110001000011001000000001101010100000101100000110,00000000000000000000000000000000000000000000000000,00000000000000000000000000000000000000000000000000,00000000000000000000000000000000000000000000000000,00000000000000000000000000000000000000000000000000,00000000000000000000000000000000000000000000000000,00000000000000000000000000000000000000000000000000,00000000000000000000000000000000000000000000000000,00000000000000000000000000000000000000000000000000,00000000000000000000000000000000000000000000000000,10000110010000100001011100010001001001010000000000,00000000000000000000000000000000000000000000000000,00000000000000000000000000000000000000000000000000,00000000000000000000000000000000000000000000000000,[],[0, 0, 0, 0, 0, 0, 0, 0, 0, 0, 0, 0, 0, 0, 0, 0, 0, 10, 0, 0, 4, 0, 0, 0, 0, 0, 0, 0, 0, 0, 0, 0, 0, 0, 0, 4, 0, 0, 0, 0, 0, 0, 16, 0, 1, 0, 0, 0, 0, 0],[],[0, 3, 0, 0, 3, 0, 0, 0, 19, 0, 2, 3, 0, 0, 0, 5, 0, 0, 19, 0, 0, 0, 0, 0, 5, 0, 0, 0, 0, 14, 0, 0, 0, 19, 0, 0, 14, 0, 0, 0, 0, 0, 0, 19, 0, 19, 0, 0, 0, 3],[],[],[0, 0, 15, 12, 0, 0, 0, 13, 0, 0, 0, 0, 9, 9, 0, 0, 12, 0, 0, 0, 0, 0, 0, 0, 0, 7, 7, 0, 13, 0, 15, 0, 12, 0, 0, 0, 0, 0, 7, 0, 12, 9, 0, 0, 0, 0, 0, 9, 12, 0],[],[],[],[],[],[],[],[],[],[20, 0, 0, 0, 0, 6, 18, 0, 0, 18, 0, 0, 0, 0, 18, 0, 0, 0, 0, 6, 0, 17, 6, 18, 0, 0, 0, 6, 0, 0, 0, 18, 0, 0, 8, 0, 0, 8, 0, 17, 0, 0, 0, 0, 0, 0, 0, 0, 0, 0],[],[],[][11, 4],[15, 10, 8],[3, 12],[24, 45, 33],[44],[31, 27],[38, 2, 16],[32, 25, 40],[47, 7, 48, 13],[36, 1, 43, 29],[14, 0],[23, 6, 34, 22, 21],[42],[39, 9],[17],[49, 18],[35, 20],[19, 37, 5],[],[41, 26, 28, 30]
00000000000000000000000000000000000000000000000000,00000000000000000100100000000000000100000010100000,00000000000000000000000000000000000000000000000000,01001000101100010010000010000100010010000001010001,00000000000000000000000000000000000000000000000000,00000000000000000000000000000000000000000000000000,00110001000011001000000001101010100000101100000110,00000000000000000000000000000000000000000000000000,00000000000000000000000000000000000000000000000000,00000000000000000000000000000000000000000000000000,00000000000000000000000000000000000000000000000000,00000000000000000000000000000000000000000000000000,00000000000000000000000000000000000000000000000000,00000000000000000000000000000000000000000000000000,00000000000000000000000000000000000000000000000000,00000000000000000000000000000000000000000000000000,10000110010000100001011100010001001001010000000000,00000000000000000000000000000000000000000000000000,00000000000000000000000000000000000000000000000000,00000000000000000000000000000000000000000000000000,[],[0, 0, 0, 0, 0, 0, 0, 0, 0, 0, 0, 0, 0, 0, 0, 0, 0, 16, 0, 0, 5, 0, 0, 0, 0, 0, 0, 0, 0, 0, 0, 0, 0, 0, 0, 17, 0, 0, 0, 0, 0, 0, 16, 0, 15, 0, 0, 0, 0, 0],[],[0, 1, 0, 0, 12, 0, 0, 0, 6, 0, 12, 13, 0, 0, 0, 13, 0, 0, 6, 0, 0, 0, 0, 0, 13, 0, 0, 0, 0, 12, 0, 0, 0, 1, 0, 0, 6, 0, 0, 0, 0, 0, 0, 13, 0, 1, 0, 0, 0, 6],[],[],[0, 0, 8, 20, 0, 0, 0, 11, 0, 0, 0, 0, 9, 9, 0, 0, 3, 0, 0, 0, 0, 0, 0, 0, 0, 8, 8, 0, 11, 0, 3, 0, 20, 0, 0, 0, 0, 0, 3, 0, 9, 3, 0, 0, 0, 0, 0, 3, 11, 0],[],[],[],[],[],[],[],[],[],[18, 0, 0, 0, 0, 4, 10, 0, 0, 10, 0, 0, 0, 0, 7, 0, 0, 0, 0, 10, 0, 10, 7, 2, 0, 0, 0, 7, 0, 0, 0, 18, 0, 0, 10, 0, 0, 7, 0, 4, 0, 0, 0, 0, 0, 0, 0, 0, 0, 0],[],[],[][17, 20],[29],[],[3, 28, 25],[39, 22],[40, 32],[15, 24, 45],[0, 5, 34, 23],[48, 2, 30, 41],[44],[13, 38],[27, 31, 9],[37, 6],[],[21, 14, 19],[18, 4, 8],[43, 49],[36, 11, 1, 10, 33],[26, 12, 7, 16, 47],[35, 42]
00000000000000000000000000000000000000000000000000,00000000000000000100100000000000000100000010100000,00000000000000000000000000000000000000000000000000,01001000101100010010000010000100010010000001010001,00000000000000000000000000000000000000000000000000,00000000000000000000000000000000000000000000000000,00110001000011001000000001101010100000101100000110,00000000000000000000000000000000000000000000000000,00000000000000000000000000000000000000000000000000,00000000000000000000000000000000000000000000000000,00000000000000000000000000000000000000000000000000,00000000000000000000000000000000000000000000000000,00000000000000000000000000000000000000000000000000,00000000000000000000000000000000000000000000000000,00000000000000000000000000000000000000000000000000,00000000000000000000000000000000000000000000000000,10000110010000100001011100010001001001010000000000,00000000000000000000000000000000000000000000000000,00000000000000000000000000000000000000000000000000,00000000000000000000000000000000000000000000000000,[],[0, 0, 0, 0, 0, 0, 0, 0, 0, 0, 0, 0, 0, 0, 0, 0, 0, 1, 0, 0, 16, 0, 0, 0, 0, 0, 0, 0, 0, 0, 0, 0, 0, 0, 0, 1, 0, 0, 0, 0, 0, 0, 5, 0, 16, 0, 0, 0, 0, 0],[],[0, 15, 0, 0, 3, 0, 0, 0, 3, 0, 4, 3, 0, 0, 0, 3, 0, 0, 4, 0, 0, 0, 0, 0, 15, 0, 0, 0, 0, 3, 0, 0, 0, 12, 0, 0, 15, 0, 0, 0, 0, 0, 0, 12, 0, 4, 0, 0, 0, 4],[],[],[0, 0, 8, 9, 0, 0, 0, 13, 0, 0, 0, 0, 8, 9, 0, 0, 13, 0, 0, 0, 0, 0, 0, 0, 0, 13, 9, 0, 8, 0, 6, 0, 9, 0, 0, 0, 0, 0, 11, 0, 13, 8, 0, 0, 0, 0, 0, 11, 6, 0],[],[],[],[],[],[],[],[],[],[10, 0, 0, 0, 0, 19, 20, 0, 0, 14, 0, 0, 0, 0, 20, 0, 0, 0, 0, 7, 0, 14, 10, 19, 0, 0, 0, 10, 0, 0, 0, 20, 0, 0, 10, 0, 0, 10, 0, 20, 0, 0, 0, 0, 0, 0, 0, 0, 0, 0],[],[],[][17, 35],[],[8, 4, 11, 29, 15],[49, 18, 10, 45],[42],[30, 48],[19],[41, 12, 2, 28],[32, 26, 13, 3],[0, 34, 37, 22, 27],[38, 47],[43, 33],[40, 16, 25, 7],[21, 9],[1, 24, 36],[20, 44],[],[],[5, 23],[39, 31, 14, 6]
00000000000000000000000000000000000000000000000000,00000000000000000100100000000000000100000010100000,00000000000000000000000000000000000000000000000000,01001000101100010010000010000100010010000001010001,00000000000000000000000000000000000000000000000000,00000000000000000000000000000000000000000000000000,00110001000011001000000001101010100000101100000110,00000000000000000000000000000000000000000000000000,00000000000000000000000000000000000000000000000000,00000000000000000000000000000000000000000000000000,00000000000000000000000000000000000000000000000000,00000000000000000000000000000000000000000000000000,00000000000000000000000000000000000000000000000000,00000000000000000000000000000000000000000000000000,00000000000000000000000000000000000000000000000000,00000000000000000000000000000000000000000000000000,10000110010000100001011100010001001001010000000000,00000000000000000000000000000000000000000000000000,00000000000000000000000000000000000000000000000000,00000000000000000000000000000000000000000000000000,[],[0, 0, 0, 0, 0, 0, 0, 0, 0, 0, 0, 0, 0, 0, 0, 0, 0, 20, 0, 0, 17, 0, 0, 0, 0, 0, 0, 0, 0, 0, 0, 0, 0, 0, 0, 16, 0, 0, 0, 0, 0, 0, 17, 0, 20, 0, 0, 0, 0, 0],[],[0, 1, 0, 0, 6, 0, 0, 0, 2, 0, 10, 1, 0, 0, 0, 2, 0, 0, 10, 0, 0, 0, 0, 0, 10, 0, 0, 0, 0, 1, 0, 0, 0, 6, 0, 0, 10, 0, 0, 0, 0, 0, 0, 6, 0, 10, 0, 0, 0, 11],[],[],[0, 0, 9, 9, 0, 0, 0, 3, 0, 0, 0, 0, 9, 13, 0, 0, 19, 0, 0, 0, 0, 0, 0, 0, 0, 3, 13, 0, 3, 0, 13, 0, 3, 0, 0, 0, 0, 0, 9, 0, 5, 19, 0, 0, 0, 0, 0, 19, 5, 0],[],[],[],[],[],[],[],[],[],[15, 0, 0, 0, 0, 14, 7, 0, 0, 14, 0, 0, 0, 0, 15, 0, 0, 0, 0, 12, 0, 7, 7, 12, 0, 0, 0, 8, 0, 0, 0, 15, 0, 0, 8, 0, 0, 12, 0, 8, 0, 0, 0, 0, 0, 0, 0, 0, 0, 0],[],[],[][23, 39],[1, 45],[40, 25, 26, 7],[],[],[32, 2, 28],[22, 9, 6],[43, 29, 33],[10, 24, 36],[21, 31, 14, 34],[18, 11, 15],[35, 20, 42, 44],[47, 48, 38],[16],[27, 5, 0],[8, 4, 49],[17],[19, 37],[41, 13, 30, 12, 3],[]
00000000000000000000000000000000000000000000000000,00000000000000000100100000000000000100000010100000,00000000000000000000000000000000000000000000000000,01001000101100010010000010000100010010000001010001,00000000000000000000000000000000000000000000000000,00000000000000000000000000000000000000000000000000,00110001000011001000000001101010100000101100000110,00000000000000000000000000000000000000000000000000,00000000000000000000000000000000000000000000000000,00000000000000000000000000000000000000000000000000,00000000000000000000000000000000000000000000000000,00000000000000000000000000000000000000000000000000,00000000000000000000000000000000000000000000000000,00000000000000000000000000000000000000000000000000,00000000000000000000000000000000000000000000000000,00000000000000000000000000000000000000000000000000,10000110010000100001011100010001001001010000000000,00000000000000000000000000000000000000000000000000,00000000000000000000000000000000000000000000000000,00000000000000000000000000000000000000000000000000,[],[0, 0, 0, 0, 0, 0, 0, 0, 0, 0, 0, 0, 0, 0, 0, 0, 0, 17, 0, 0, 13, 0, 0, 0, 0, 0, 0, 0, 0, 0, 0, 0, 0, 0, 0, 17, 0, 0, 0, 0, 0, 0, 9, 0, 9, 0, 0, 0, 0, 0],[],[0, 4, 0, 0, 6, 0, 0, 0, 6, 0, 12, 12, 0, 0, 0, 14, 0, 0, 14, 0, 0, 0, 0, 0, 12, 0, 0, 0, 0, 12, 0, 0, 0, 6, 0, 0, 16, 0, 0, 0, 0, 0, 0, 6, 0, 12, 0, 0, 0, 16],[],[],[0, 0, 20, 8, 0, 0, 0, 8, 0, 0, 0, 0, 10, 20, 0, 0, 8, 0, 0, 0, 0, 0, 0, 0, 0, 10, 10, 0, 8, 0, 10, 0, 10, 0, 0, 0, 0, 0, 18, 0, 8, 19, 0, 0, 0, 0, 0, 18, 19, 0],[],[],[],[],[],[],[],[],[],[15, 0, 0, 0, 0, 15, 15, 0, 0, 5, 0, 0, 0, 0, 5, 0, 0, 0, 0, 3, 0, 5, 7, 11, 0, 0, 0, 11, 0, 0, 0, 7, 0, 0, 7, 0, 0, 5, 0, 11, 0, 0, 0, 0, 0, 0, 0, 0, 0, 0],[],[],[][42],[47, 25, 26],[20],[8],[35],[24, 11, 49],[32, 48, 16],[40, 12, 2, 3],[1, 18, 36, 33],[27, 31],[21],[23, 0, 19, 37],[22],[],[38, 28, 13],[45, 4, 29],[44, 17],[30, 7, 41],[15, 43, 10],[34, 6, 5, 9, 39, 14]
00000000000000000000000000000000000000000000000000,00000000000000000100100000000000000100000010100000,00000000000000000000000000000000000000000000000000,01001000101100010010000010000100010010000001010001,00000000000000000000000000000000000000000000000000,00000000000000000000000000000000000000000000000000,00110001000011001000000001101010100000101100000110,00000000000000000000000000000000000000000000000000,00000000000000000000000000000000000000000000000000,00000000000000000000000000000000000000000000000000,00000000000000000000000000000000000000000000000000,00000000000000000000000000000000000000000000000000,00000000000000000000000000000000000000000000000000,00000000000000000000000000000000000000000000000000,00000000000000000000000000000000000000000000000000,00000000000000000000000000000000000000000000000000,10000110010000100001011100010001001001010000000000,00000000000000000000000000000000000000000000000000,00000000000000000000000000000000000000000000000000,00000000000000000000000000000000000000000000000000,[],[0, 0, 0, 0, 0, 0, 0, 0, 0, 0, 0, 0, 0, 0, 0, 0, 0, 17, 0, 0, 14, 0, 0, 0, 0, 0, 0, 0, 0, 0, 0, 0, 0, 0, 0, 3, 0, 0, 0, 0, 0, 0, 17, 0, 15, 0, 0, 0, 0, 0],[],[0, 20, 0, 0, 10, 0, 0, 0, 11, 0, 20, 4, 0, 0, 0, 4, 0, 0, 10, 0, 0, 0, 0, 0, 10, 0, 0, 0, 0, 10, 0, 0, 0, 4, 0, 0, 16, 0, 0, 0, 0, 0, 0, 16, 0, 20, 0, 0, 0, 10],[],[],[0, 0, 7, 18, 0, 0, 0, 18, 0, 0, 0, 0, 12, 13, 0, 0, 18, 0, 0, 0, 0, 0, 0, 0, 0, 13, 12, 0, 13, 0, 7, 0, 12, 0, 0, 0, 0, 0, 18, 0, 12, 13, 0, 0, 0, 0, 0, 7, 12, 0],[],[],[],[],[],[],[],[],[],[2, 0, 0, 0, 0, 6, 6, 0, 0, 1, 0, 0, 0, 0, 6, 0, 0, 0, 0, 1, 0, 8, 1, 19, 0, 0, 0, 8, 0, 0, 0, 6, 0, 0, 19, 0, 0, 1, 0, 8, 0, 0, 0, 0, 0, 0, 0, 0, 0, 0],[],[],[][38, 30],[4, 1],[18, 11, 29, 8],[15, 43, 24],[9, 23],[0, 39],[14, 19, 22, 5],[45, 10],[20, 42],[37, 31, 21, 34, 6],[40, 25, 13],[35],[41, 2],[],[49, 33, 36],[44, 17],[],[27],[47, 7, 28, 32, 3],[26, 12, 48, 16]
00000000000000000000000000000000000000000000000000,00000000000000000100100000000000000100000010100000,00000000000000000000000000000000000000000000000000,01001000101100010010000010000100010010000001010001,00000000000000000000000000000000000000000000000000,00000000000000000000000000000000000000000000000000,00110001000011001000000001101010100000101100000110,00000000000000000000000000000000000000000000000000,00000000000000000000000000000000000000000000000000,00000000000000000000000000000000000000000000000000,00000000000000000000000000000000000000000000000000,00000000000000000000000000000000000000000000000000,00000000000000000000000000000000000000000000000000,00000000000000000000000000000000000000000000000000,00000000000000000000000000000000000000000000000000,00000000000000000000000000000000000000000000000000,10000110010000100001011100010001001001010000000000,00000000000000000000000000000000000000000000000000,00000000000000000000000000000000000000000000000000,00000000000000000000000000000000000000000000000000,[],[0, 0, 0, 0, 0, 0, 0, 0, 0, 0, 0, 0, 0, 0, 0, 0, 0, 2, 0, 0, 10, 0, 0, 0, 0, 0, 0, 0, 0, 0, 0, 0, 0, 0, 0, 1, 0, 0, 0, 0, 0, 0, 8, 0, 6, 0, 0, 0, 0, 0],[],[0, 9, 0, 0, 9, 0, 0, 0, 16, 0, 15, 16, 0, 0, 0, 20, 0, 0, 20, 0, 0, 0, 0, 0, 9, 0, 0, 0, 0, 9, 0, 0, 0, 9, 0, 0, 20, 0, 0, 0, 0, 0, 0, 17, 0, 20, 0, 0, 0, 9],[],[],[0, 0, 12, 7, 0, 0, 0, 5, 0, 0, 0, 0, 13, 5, 0, 0, 12, 0, 0, 0, 0, 0, 0, 0, 0, 13, 7, 0, 12, 0, 4, 0, 7, 0, 0, 0, 0, 0, 4, 0, 7, 7, 0, 0, 0, 0, 0, 13, 4, 0],[],[],[],[],[],[],[],[],[],[18, 0, 0, 0, 0, 3, 19, 0, 0, 11, 0, 0, 0, 0, 11, 0, 0, 0, 0, 11, 0, 19, 14, 19, 0, 0, 0, 3, 0, 0, 0, 14, 0, 0, 18, 0, 0, 3, 0, 18, 0, 0, 0, 0, 0, 0, 0, 0, 0, 0],[],[],[][],[17],[25, 28, 41],[13, 7, 16],[20, 42, 35],[33, 36, 11],[44],[24, 29, 4, 10],[18, 43, 1, 8],[21, 19, 22, 37],[0, 23, 31],[40, 12],[32, 38, 30, 48],[5],[49],[27],[45, 15],[],[6, 34, 14, 9, 39],[3, 2, 26, 47]
00000000000000000000000000000000000000000000000000,00000000000000000100100000000000000100000010100000,00000000000000000000000000000000000000000000000000,01001000101100010010000010000100010010000001010001,00000000000000000000000000000000000000000000000000,00000000000000000000000000000000000000000000000000,00110001000011001000000001101010100000101100000110,00000000000000000000000000000000000000000000000000,00000000000000000000000000000000000000000000000000,00000000000000000000000000000000000000000000000000,00000000000000000000000000000000000000000000000000,00000000000000000000000000000000000000000000000000,00000000000000000000000000000000000000000000000000,00000000000000000000000000000000000000000000000000,00000000000000000000000000000000000000000000000000,00000000000000000000000000000000000000000000000000,10000110010000100001011100010001001001010000000000,00000000000000000000000000000000000000000000000000,00000000000000000000000000000000000000000000000000,00000000000000000000000000000000000000000000000000,[],[0, 0, 0, 0, 0, 0, 0, 0, 0, 0, 0, 0, 0, 0, 0, 0, 0, 11, 0, 0, 4, 0, 0, 0, 0, 0, 0, 0, 0, 0, 0, 0, 0, 0, 0, 11, 0, 0, 0, 0, 0, 0, 18, 0, 18, 0, 0, 0, 0, 0],[],[0, 1, 0, 0, 20, 0, 0, 0, 1, 0, 9, 14, 0, 0, 0, 20, 0, 0, 20, 0, 0, 0, 0, 0, 3, 0, 0, 0, 0, 3, 0, 0, 0, 1, 0, 0, 9, 0, 0, 0, 0, 0, 0, 3, 0, 9, 0, 0, 0, 3],[],[],[0, 0, 13, 19, 0, 0, 0, 7, 0, 0, 0, 0, 8, 10, 0, 0, 13, 0, 0, 0, 0, 0, 0, 0, 0, 7, 10, 0, 10, 0, 10, 0, 19, 0, 0, 0, 0, 0, 19, 0, 7, 8, 0, 0, 0, 0, 0, 13, 10, 0],[],[],[],[],[],[],[],[],[],[2, 0, 0, 0, 0, 2, 12, 0, 0, 15, 0, 0, 0, 0, 12, 0, 0, 0, 0, 12, 0, 12, 2, 15, 0, 0, 0, 15, 0, 0, 0, 5, 0, 0, 6, 0, 0, 12, 0, 6, 0, 0, 0, 0, 0, 0, 0, 0, 0, 0],[],[],[][38, 48],[],[42, 20],[27, 23, 6],[33, 8, 29],[3, 30, 41],[19, 21, 9, 39, 14],[49, 15, 10],[16, 12, 2],[47, 7, 28, 25, 13],[44, 35, 17],[0, 34, 37, 22, 5],[32, 26, 40],[31],[],[],[],[36, 43, 18],[4, 45],[1, 11, 24]
00000000000000000000000000000000000000000000000000,00000000000000000100100000000000000100000010100000,00000000000000000000000000000000000000000000000000,01001000101100010010000010000100010010000001010001,00000000000000000000000000000000000000000000000000,00000000000000000000000000000000000000000000000000,00110001000011001000000001101010100000101100000110,00000000000000000000000000000000000000000000000000,00000000000000000000000000000000000000000000000000,00000000000000000000000000000000000000000000000000,00000000000000000000000000000000000000000000000000,00000000000000000000000000000000000000000000000000,00000000000000000000000000000000000000000000000000,00000000000000000000000000000000000000000000000000,00000000000000000000000000000000000000000000000000,00000000000000000000000000000000000000000000000000,10000110010000100001011100010001001001010000000000,00000000000000000000000000000000000000000000000000,00000000000000000000000000000000000000000000000000,00000000000000000000000000000000000000000000000000,[],[0, 0, 0, 0, 0, 0, 0, 0, 0, 0, 0, 0, 0, 0, 0, 0, 0, 10, 0, 0, 11, 0, 0, 0, 0, 0, 0, 0, 0, 0, 0, 0, 0, 0, 0, 11, 0, 0, 0, 0, 0, 0, 18, 0, 18, 0, 0, 0, 0, 0],[],[0, 6, 0, 0, 7, 0, 0, 0, 6, 0, 7, 6, 0, 0, 0, 17, 0, 0, 1, 0, 0, 0, 0, 0, 1, 0, 0, 0, 0, 6, 0, 0, 0, 17, 0, 0, 15, 0, 0, 0, 0, 0, 0, 7, 0, 7, 0, 0, 0, 17],[],[],[0, 0, 9, 8, 0, 0, 0, 8, 0, 0, 0, 0, 9, 3, 0, 0, 9, 0, 0, 0, 0, 0, 0, 0, 0, 20, 20, 0, 13, 0, 8, 0, 3, 0, 0, 0, 0, 0, 8, 0, 3, 20, 0, 0, 0, 0, 0, 9, 8, 0],[],[],[],[],[],[],[],[],[],[19, 0, 0, 0, 0, 19, 5, 0, 0, 4, 0, 0, 0, 0, 12, 0, 0, 0, 0, 12, 0, 12, 19, 16, 0, 0, 0, 4, 0, 0, 0, 4, 0, 0, 12, 0, 0, 12, 0, 16, 0, 0, 0, 0, 0, 0, 0, 0, 0, 0],[],[],[][11, 24, 36],[6, 21],[43, 45],[20],[42],[17],[7, 26, 38],[44, 35],[2, 12, 25, 32],[49, 15, 18, 10, 33],[27, 39, 14],[9, 31, 23],[5, 34, 19, 0],[],[1, 8, 4, 29],[],[22, 37],[41, 3, 30, 40],[28],[47, 16, 48, 13]
00000000000000000000000000000000000000000000000000,00000000000000000100100000000000000100000010100000,00000000000000000000000000000000000000000000000000,01001000101100010010000010000100010010000001010001,00000000000000000000000000000000000000000000000000,00000000000000000000000000000000000000000000000000,00110001000011001000000001101010100000101100000110,00000000000000000000000000000000000000000000000000,00000000000000000000000000000000000000000000000000,00000000000000000000000000000000000000000000000000,00000000000000000000000000000000000000000000000000,00000000000000000000000000000000000000000000000000,00000000000000000000000000000000000000000000000000,00000000000000000000000000000000000000000000000000,00000000000000000000000000000000000000000000000000,00000000000000000000000000000000000000000000000000,10000110010000100001011100010001001001010000000000,00000000000000000000000000000000000000000000000000,00000000000000000000000000000000000000000000000000,00000000000000000000000000000000000000000000000000,[],[0, 0, 0, 0, 0, 0, 0, 0, 0, 0, 0, 0, 0, 0, 0, 0, 0, 8, 0, 0, 2, 0, 0, 0, 0, 0, 0, 0, 0, 0, 0, 0, 0, 0, 0, 8, 0, 0, 0, 0, 0, 0, 2, 0, 3, 0, 0, 0, 0, 0],[],[0, 20, 0, 0, 20, 0, 0, 0, 18, 0, 18, 20, 0, 0, 0, 19, 0, 0, 17, 0, 0, 0, 0, 0, 19, 0, 0, 0, 0, 14, 0, 0, 0, 14, 0, 0, 19, 0, 0, 0, 0, 0, 0, 20, 0, 19, 0, 0, 0, 19],[],[],[0, 0, 7, 9, 0, 0, 0, 10, 0, 0, 0, 0, 5, 10, 0, 0, 1, 0, 0, 0, 0, 0, 0, 0, 0, 9, 5, 0, 7, 0, 9, 0, 10, 0, 0, 0, 0, 0, 9, 0, 7, 10, 0, 0, 0, 0, 0, 7, 1, 0],[],[],[],[],[],[],[],[],[],[4, 0, 0, 0, 0, 12, 4, 0, 0, 4, 0, 0, 0, 0, 6, 0, 0, 0, 0, 4, 0, 11, 11, 11, 0, 0, 0, 6, 0, 0, 0, 12, 0, 0, 12, 0, 0, 11, 0, 6, 0, 0, 0, 0, 0, 0, 0, 0, 0, 0],[],[],[][],[43, 11],[2, 26, 7, 41],[],[33, 36, 24],[19, 39, 21],[6, 34, 14],[38, 16, 47, 40],[23, 37, 5, 31, 9],[18, 1, 29],[22, 0],[4, 8, 45, 49],[32, 28, 48, 25, 30],[3],[10, 15],[12, 13],[42],[35, 44, 20, 17],[27],[]
00000000000000000000000000000000000000000000000000,00000000000000000100100000000000000100000010100000,00000000000000000000000000000000000000000000000000,01001000101100010010000010000100010010000001010001,00000000000000000000000000000000000000000000000000,00000000000000000000000000000000000000000000000000,00110001000011001000000001101010100000101100000110,00000000000000000000000000000000000000000000000000,00000000000000000000000000000000000000000000000000,00000000000000000000000000000000000000000000000000,00000000000000000000000000000000000000000000000000,00000000000000000000000000000000000000000000000000,00000000000000000000000000000000000000000000000000,00000000000000000000000000000000000000000000000000,00000000000000000000000000000000000000000000000000,00000000000000000000000000000000000000000000000000,10000110010000100001011100010001001001010000000000,00000000000000000000000000000000000000000000000000,00000000000000000000000000000000000000000000000000,00000000000000000000000000000000000000000000000000,[],[0, 0, 0, 0, 0, 0, 0, 0, 0, 0, 0, 0, 0, 0, 0, 0, 0, 14, 0, 0, 14, 0, 0, 0, 0, 0, 0, 0, 0, 0, 0, 0, 0, 0, 0, 11, 0, 0, 0, 0, 0, 0, 15, 0, 15, 0, 0, 0, 0, 0],[],[0, 7, 0, 0, 9, 0, 0, 0, 18, 0, 7, 9, 0, 0, 0, 9, 0, 0, 13, 0, 0, 0, 0, 0, 1, 0, 0, 0, 0, 7, 0, 0, 0, 7, 0, 0, 9, 0, 0, 0, 0, 0, 0, 1, 0, 7, 0, 0, 0, 9],[],[],[0, 0, 4, 20, 0, 0, 0, 20, 0, 0, 0, 0, 19, 2, 0, 0, 19, 0, 0, 0, 0, 0, 0, 0, 0, 17, 2, 0, 4, 0, 19, 0, 19, 0, 0, 0, 0, 0, 19, 0, 17, 20, 0, 0, 0, 0, 0, 19, 20, 0],[],[],[],[],[],[],[],[],[],[6, 0, 0, 0, 0, 6, 8, 0, 0, 6, 0, 0, 0, 0, 16, 0, 0, 0, 0, 12, 0, 8, 6, 12, 0, 0, 0, 10, 0, 0, 0, 12, 0, 0, 8, 0, 0, 8, 0, 10, 0, 0, 0, 0, 0, 0, 0, 0, 0, 0],[],[],[][23, 14],[5, 31],[3, 47, 30, 38, 13],[7, 26, 28, 48],[],[43, 11, 18],[],[44],[1, 49, 36, 45, 33, 24],[34, 19, 39],[6, 22, 9, 27],[29, 4, 8, 10],[35],[42],[20, 17],[0, 37, 21],[15],[32, 25, 12, 16],[2, 40, 41],[]
00000000000000000000000000000000000000000000000000,00000000000000000100100000000000000100000010100000,00000000000000000000000000000000000000000000000000,01001000101100010010000010000100010010000001010001,00000000000000000000000000000000000000000000000000,00000000000000000000000000000000000000000000000000,00110001000011001000000001101010100000101100000110,00000000000000000000000000000000000000000000000000,00000000000000000000000000000000000000000000000000,00000000000000000000000000000000000000000000000000,00000000000000000000000000000000000000000000000000,00000000000000000000000000000000000000000000000000,00000000000000000000000000000000000000000000000000,00000000000000000000000000000000000000000000000000,00000000000000000000000000000000000000000000000000,00000000000000000000000000000000000000000000000000,10000110010000100001011100010001001001010000000000,00000000000000000000000000000000000000000000000000,00000000000000000000000000000000000000000000000000,00000000000000000000000000000000000000000000000000,[],[0, 0, 0, 0, 0, 0, 0, 0, 0, 0, 0, 0, 0, 0, 0, 0, 0, 5, 0, 0, 1, 0, 0, 0, 0, 0, 0, 0, 0, 0, 0, 0, 0, 0, 0, 18, 0, 0, 0, 0, 0, 0, 13, 0, 18, 0, 0, 0, 0, 0],[],[0, 19, 0, 0, 8, 0, 0, 0, 3, 0, 19, 8, 0, 0, 0, 19, 0, 0, 8, 0, 0, 0, 0, 0, 14, 0, 0, 0, 0, 3, 0, 0, 0, 8, 0, 0, 19, 0, 0, 0, 0, 0, 0, 3, 0, 3, 0, 0, 0, 6],[],[],[0, 0, 10, 10, 0, 0, 0, 20, 0, 0, 0, 0, 9, 16, 0, 0, 20, 0, 0, 0, 0, 0, 0, 0, 0, 12, 20, 0, 16, 0, 12, 0, 10, 0, 0, 0, 0, 0, 12, 0, 9, 9, 0, 0, 0, 0, 0, 9, 10, 0],[],[],[],[],[],[],[],[],[],[11, 0, 0, 0, 0, 7, 4, 0, 0, 2, 0, 0, 0, 0, 7, 0, 0, 0, 0, 7, 0, 15, 4, 15, 0, 0, 0, 2, 0, 0, 0, 4, 0, 0, 7, 0, 0, 11, 0, 4, 0, 0, 0, 0, 0, 0, 0, 0, 0, 0],[],[],[][35, 42, 17],[20],[],[],[13],[18],[34, 21],[16, 30, 2, 32],[47, 28, 48, 3],[1],[49, 29, 4, 10, 33],[43, 8, 45],[36, 11, 15, 24],[44],[31, 5, 9, 22, 6],[23, 14, 37],[27],[41, 7, 12],[40, 26, 25, 38],[0, 39, 19]
00000000000000000000000000000000000000000000000000,00000000000000000100100000000000000100000010100000,00000000000000000000000000000000000000000000000000,01001000101100010010000010000100010010000001010001,00000000000000000000000000000000000000000000000000,00000000000000000000000000000000000000000000000000,00110001000011001000000001101010100000101100000110,00000000000000000000000000000000000000000000000000,00000000000000000000000000000000000000000000000000,00000000000000000000000000000000000000000000000000,00000000000000000000000000000000000000000000000000,00000000000000000000000000000000000000000000000000,00000000000000000000000000000000000000000000000000,00000000000000000000000000000000000000000000000000,00000000000000000000000000000000000000000000000000,00000000000000000000000000000000000000000000000000,10000110010000100001011100010001001001010000000000,00000000000000000000000000000000000000000000000000,00000000000000000000000000000000000000000000000000,00000000000000000000000000000000000000000000000000,[],[0, 0, 0, 0, 0, 0, 0, 0, 0, 0, 0, 0, 0, 0, 0, 0, 0, 16, 0, 0, 19, 0, 0, 0, 0, 0, 0, 0, 0, 0, 0, 0, 0, 0, 0, 19, 0, 0, 0, 0, 0, 0, 16, 0, 16, 0, 0, 0, 0, 0],[],[0, 1, 0, 0, 14, 0, 0, 0, 12, 0, 1, 12, 0, 0, 0, 12, 0, 0, 12, 0, 0, 0, 0, 0, 1, 0, 0, 0, 0, 14, 0, 0, 0, 2, 0, 0, 12, 0, 0, 0, 0, 0, 0, 5, 0, 1, 0, 0, 0, 2],[],[],[0, 0, 9, 4, 0, 0, 0, 10, 0, 0, 0, 0, 9, 4, 0, 0, 10, 0, 0, 0, 0, 0, 0, 0, 0, 18, 9, 0, 10, 0, 4, 0, 10, 0, 0, 0, 0, 0, 17, 0, 18, 10, 0, 0, 0, 0, 0, 18, 18, 0],[],[],[],[],[],[],[],[],[],[13, 0, 0, 0, 0, 11, 8, 0, 0, 11, 0, 0, 0, 0, 11, 0, 0, 0, 0, 3, 0, 11, 13, 8, 0, 0, 0, 11, 0, 0, 0, 3, 0, 0, 15, 0, 0, 8, 0, 13, 0, 0, 0, 0, 0, 0, 0, 0, 0, 0],[],[],[][20],[17, 42],[28, 25, 30, 38, 32, 3],[14, 22, 0],[39, 37, 9],[47, 16, 26],[8, 36, 11],[6, 19, 27, 31],[],[10, 33, 43],[5, 21, 23],[41, 48, 12, 2],[4, 29, 15],[],[49, 24],[35, 44],[],[34],[7, 13, 40],[1, 18, 45]
00000000000000000000000000000000000000000000000000,00000000000000000100100000000000000100000010100000,00000000000000000000000000000000000000000000000000,01001000101100010010000010000100010010000001010001,00000000000000000000000000000000000000000000000000,00000000000000000000000000000000000000000000000000,00110001000011001000000001101010100000101100000110,00000000000000000000000000000000000000000000000000,00000000000000000000000000000000000000000000000000,00000000000000000000000000000000000000000000000000,00000000000000000000000000000000000000000000000000,00000000000000000000000000000000000000000000000000,00000000000000000000000000000000000000000000000000,00000000000000000000000000000000000000000000000000,00000000000000000000000000000000000000000000000000,00000000000000000000000000000000000000000000000000,10000110010000100001011100010001001001010000000000,00000000000000000000000000000000000000000000000000,00000000000000000000000000000000000000000000000000,00000000000000000000000000000000000000000000000000,[],[0, 0, 0, 0, 0, 0, 0, 0, 0, 0, 0, 0, 0, 0, 0, 0, 0, 9, 0, 0, 14, 0, 0, 0, 0, 0, 0, 0, 0, 0, 0, 0, 0, 0, 0, 9, 0, 0, 0, 0, 0, 0, 9, 0, 16, 0, 0, 0, 0, 0],[],[0, 13, 0, 0, 13, 0, 0, 0, 5, 0, 5, 20, 0, 0, 0, 3, 0, 0, 20, 0, 0, 0, 0, 0, 20, 0, 0, 0, 0, 3, 0, 0, 0, 3, 0, 0, 5, 0, 0, 0, 0, 0, 0, 13, 0, 4, 0, 0, 0, 4],[],[],[0, 0, 12, 18, 0, 0, 0, 18, 0, 0, 0, 0, 11, 11, 0, 0, 6, 0, 0, 0, 0, 0, 0, 0, 0, 12, 15, 0, 18, 0, 12, 0, 18, 0, 0, 0, 0, 0, 12, 0, 6, 6, 0, 0, 0, 0, 0, 15, 15, 0],[],[],[],[],[],[],[],[],[],[1, 0, 0, 0, 0, 8, 2, 0, 0, 1, 0, 0, 0, 0, 17, 0, 0, 0, 0, 10, 0, 1, 1, 2, 0, 0, 0, 17, 0, 0, 0, 10, 0, 0, 10, 0, 0, 1, 0, 2, 0, 0, 0, 0, 0, 0, 0, 0, 0, 0],[],[],[][21, 14, 19],[25, 12],[36, 45],[],[26, 30],[],[35, 42, 44, 20, 17],[31, 9, 5, 27],[18, 29, 43],[13, 7, 28, 38, 40],[34, 39, 37],[8],[3, 41, 32, 2],[24],[],[],[22, 0],[6, 23],[10, 33, 4, 1, 11, 49, 15],[48, 16, 47]
